1370
1   1   0    99   0 8 36 64 63 32 90 19 45 84 0
1   2   0    100  0 5 95 16 86 0
1   3   0    97   0 83 82 11 49 47 46 0
1   4   0    98   0 98 91 93 59 100 14 0
2   1   0    96   0 24 9 71 66 20 65 35 0
2   2   0    84   0 3 81 29 68 0
2   3   0    81   0 4 67 23 25 55 0
2   4   0    73   0 22 75 56 39 0
3   1   0    99   0 87 85 53 58 0
3   2   0    97   0 40 51 78 34 79 33 77 76 0
3   3   0    76   0 72 74 21 73 96 97 0
3   4   0    98   0 15 41 54 26 94 13 0
4   1   0    93   0 88 48 7 31 27 0
4   2   0    89   0 18 17 61 37 92 6 52 62 10 70 0
4   3   0    97   0 89 60 99 2 57 42 43 38 44 1 0
4   4   0    81   0 30 50 12 80 28 69 0